(set-logic QF_FPABV)
(declare-fun b36 () (_ FP 11 53))
(declare-fun b19 () (_ FP 11 53))
(declare-fun b33 () (_ FP 11 53))
(declare-fun b24 () (_ FP 11 53))
(declare-fun b29 () (_ FP 11 53))
(declare-fun b10 () (_ FP 11 53))
(declare-fun b16 () (_ FP 11 53))
(declare-fun b12 () (_ FP 11 53))
(declare-fun b26 () (_ FP 11 53))
(define-fun .3 () RoundingMode roundNearestTiesToEven)
(define-fun .9 () (_ FP 11 53) b10)
(define-fun .10 () (_ FP 11 53) b16)
(define-fun .11 () (_ FP 11 53) (+ .3 .9 .10))
(define-fun .12 () (_ FP 11 53) b19)
(define-fun .13 () Bool (< .12 .11))
(define-fun .14 () (_ FP 11 53) b12)
(define-fun .15 () Bool (<= .9 .14))
(define-fun .16 () Bool (and .13 .15))
(define-fun .17 () (_ FP 11 53) b26)
(define-fun .18 () Bool (<= .9 .17))
(define-fun .19 () Bool (and .16 .18))
(define-fun .20 () (_ FP 11 53) b29)
(define-fun .21 () Bool (<= .20 .9))
(define-fun .22 () Bool (and .19 .21))
(define-fun .23 () (_ FP 11 53) b24)
(define-fun .24 () (_ FP 11 53) b33)
(define-fun .25 () Bool (<= .23 .24))
(define-fun .26 () Bool (and .22 .25))
(define-fun .27 () (_ FP 11 53) b36)
(define-fun .28 () Bool (<= .27 .23))
(define-fun .29 () Bool (and .26 .28))
(assert .29)
(check-sat)
